projected/problems_b25_r0_d7_m100_s666/_DIMACS/b25_d7_r0_s666_014.cnf
p cnf 233 360 25
c p show 1 2 3 4 5 6 7 8 9 10 11 12 13 14 15 16 17 18 19 20 21 22 23 24 25
-91 7 18 0
-92 10 0
-92 16 0
-93 92 91 0
-94 -16 -11 0
-95 19 0
-95 2 0
-96 95 0
-96 94 0
-97 96 0
-97 93 0
-98 -11 -5 0
-99 20 11 0
-100 99 0
-100 98 0
-101 8 -21 0
-102 15 22 0
-103 102 0
-103 101 0
-104 103 100 0
-105 104 97 0
-106 -22 -24 0
-107 24 22 0
-108 107 0
-108 106 0
-109 20 0
-109 1 0
-110 109 0
-110 108 0
-111 12 0
-111 -7 0
-112 -7 0
-112 14 0
-113 112 0
-113 111 0
-114 113 0
-114 110 0
-115 5 23 0
-116 -22 0
-116 -8 0
-117 116 0
-117 115 0
-118 -16 -9 0
-119 7 0
-119 -17 0
-120 17 0
-120 -7 0
-121 120 119 0
-122 121 118 0
-123 122 0
-123 117 0
-124 123 0
-124 114 0
-125 124 0
-125 105 0
-126 15 -22 0
-127 6 0
-127 -4 0
-128 127 126 0
-129 -6 4 0
-130 -15 0
-130 22 0
-131 130 129 0
-132 131 0
-132 128 0
-133 -9 0
-133 -5 0
-134 20 18 0
-135 134 0
-135 133 0
-136 135 0
-136 132 0
-137 9 5 0
-138 -20 0
-138 -18 0
-139 138 137 0
-140 129 0
-140 130 0
-141 126 0
-141 127 0
-142 141 140 0
-143 142 0
-143 139 0
-144 143 136 0
-145 13 0
-145 -25 0
-146 15 0
-146 -2 0
-147 2 0
-147 -15 0
-148 147 146 0
-149 148 145 0
-150 -11 0
-151 20 -15 0
-152 151 0
-152 150 0
-153 -20 0
-153 15 0
-154 11 0
-155 154 0
-155 153 0
-156 155 152 0
-157 156 0
-157 149 0
-158 157 0
-158 144 0
-159 22 -3 0
-160 9 0
-161 160 0
-161 159 0
-162 21 -25 0
-163 18 16 0
-164 -16 -18 0
-165 164 0
-165 163 0
-166 165 162 0
-167 -18 0
-167 -16 0
-168 16 0
-168 18 0
-169 168 167 0
-170 -21 0
-170 25 0
-171 170 169 0
-172 171 0
-172 166 0
-173 172 161 0
-174 -2 3 0
-175 -3 2 0
-176 175 0
-176 174 0
-177 -1 0
-177 -13 0
-178 177 176 0
-179 -3 0
-179 10 0
-180 10 20 0
-181 180 179 0
-182 181 178 0
-183 3 -10 0
-184 -10 0
-184 -20 0
-185 184 0
-185 183 0
-186 2 0
-186 -3 0
-187 3 0
-187 -2 0
-188 187 186 0
-189 1 13 0
-190 189 0
-190 188 0
-191 190 185 0
-192 191 0
-192 182 0
-193 192 0
-193 173 0
-194 193 158 0
-195 194 0
-195 125 0
-196 24 0
-196 21 0
-197 -21 -2 0
-198 197 0
-198 196 0
-199 -14 0
-200 21 2 0
-201 200 199 0
-202 201 0
-202 198 0
-203 14 0
-204 -21 0
-204 -2 0
-205 204 0
-205 203 0
-206 -24 -21 0
-207 21 0
-207 2 0
-208 207 206 0
-209 208 0
-209 205 0
-210 209 202 0
-211 -13 0
-211 -18 0
-212 25 0
-212 3 0
-213 212 211 0
-214 2 24 0
-215 -24 -2 0
-216 215 0
-216 214 0
-217 16 0
-217 -23 0
-218 217 216 0
-219 -16 23 0
-220 -2 0
-220 -24 0
-221 24 0
-221 2 0
-222 221 220 0
-223 222 219 0
-224 223 0
-224 218 0
-225 224 0
-225 213 0
-226 225 0
-226 210 0
-228 24 0
-228 22 0
-229 -21 0
-229 -8 0
-230 8 0
-230 21 0
-231 230 229 0
-232 231 0
-232 228 0
-26 -9 0
-26 -17 0
-27 17 0
-27 9 0
-227 27 26 0
-233 11 22 0
-53 233 0
-53 227 0
-28 53 232 0
-29 16 0
-29 -15 0
-39 -23 -7 0
-45 7 23 0
-51 45 0
-51 39 0
-58 51 29 0
-30 -11 21 0
-31 -11 -14 0
-32 31 0
-32 30 0
-33 32 58 0
-34 33 28 0
-35 34 226 0
-36 -6 9 0
-37 -10 0
-37 -16 0
-38 37 0
-38 36 0
-40 10 16 0
-41 6 0
-41 -9 0
-42 41 0
-42 40 0
-43 42 38 0
-44 -7 0
-44 21 0
-46 -17 6 0
-47 -6 17 0
-48 47 0
-48 46 0
-49 48 44 0
-50 49 43 0
-52 -4 0
-52 -11 0
-54 13 -20 0
-55 54 0
-55 52 0
-56 -4 2 0
-57 11 -21 0
-59 57 56 0
-60 -11 0
-60 21 0
-61 4 0
-61 -2 0
-62 61 60 0
-63 62 0
-63 59 0
-64 63 55 0
-65 64 50 0
-66 -1 0
-66 -11 0
-67 -11 6 0
-68 67 0
-68 66 0
-69 -13 5 0
-70 13 11 0
-71 -11 -13 0
-72 71 0
-72 70 0
-73 72 69 0
-74 -13 0
-74 -11 0
-75 11 0
-75 13 0
-76 75 74 0
-77 13 0
-77 -5 0
-78 77 76 0
-79 78 0
-79 73 0
-80 79 0
-80 68 0
-81 10 0
-81 6 0
-82 -11 0
-82 4 0
-83 82 0
-83 81 0
-84 5 0
-84 -13 0
-85 -10 0
-85 -6 0
-86 85 0
-86 84 0
-87 86 83 0
-88 87 80 0
-89 88 0
-89 65 0
-90 89 35 0
90 195 0
-137 -133 0
-134 -138 0
-138 -134 0
-139 -135 0
-135 -139 0
-127 -129 0
-129 -127 0
-130 -126 0
-126 -130 0
-132 -142 0
-142 -132 0
-151 -153 0
-154 -150 0
-165 -169 0
-169 -165 0
-162 -170 0
-183 -179 0
-179 -183 0
-180 -184 0
-181 -185 0
-185 -181 0
-176 -188 0
-177 -189 0
-178 -190 0
-203 -199 0
-199 -203 0
-200 -204 0
-201 -205 0
-206 -196 0
-197 -207 0
-207 -197 0
-208 -198 0
-217 -219 0
-219 -217 0
-216 -222 0
-37 -40 0
-41 -36 0
-57 -60 0
-60 -57 0
-61 -56 0
-56 -61 0
-72 -76 0
-76 -72 0
-69 -77 0
