projected/problems_b25_r0_d7_m100_s666/b25_d7_r0_s666_014.smt2
(set-logic QF_UF)
(declare-fun A0 () Bool)
(declare-fun A1 () Bool)
(declare-fun A2 () Bool)
(declare-fun A3 () Bool)
(declare-fun A4 () Bool)
(declare-fun A5 () Bool)
(declare-fun A6 () Bool)
(declare-fun A7 () Bool)
(declare-fun A8 () Bool)
(declare-fun A9 () Bool)
(declare-fun A10 () Bool)
(declare-fun A11 () Bool)
(declare-fun A12 () Bool)
(declare-fun A13 () Bool)
(declare-fun A14 () Bool)
(declare-fun A15 () Bool)
(declare-fun A16 () Bool)
(declare-fun A17 () Bool)
(declare-fun A18 () Bool)
(declare-fun A19 () Bool)
(declare-fun A20 () Bool)
(declare-fun A21 () Bool)
(declare-fun A22 () Bool)
(declare-fun A23 () Bool)
(declare-fun A24 () Bool)
(assert (let ((.def_0 (or A6 A17))) (let ((.def_1 (not .def_0))) (let ((.def_2 (not A15))) (let ((.def_3 (not A9))) (let ((.def_4 (or .def_3 .def_2))) (let ((.def_5 (and .def_4 .def_1))) (let ((.def_6 (not .def_5))) (let ((.def_7 (and A15 A10))) (let ((.def_8 (not A1))) (let ((.def_9 (not A18))) (let ((.def_10 (or .def_9 .def_8))) (let ((.def_11 (or .def_10 .def_7))) (let ((.def_12 (not .def_11))) (let ((.def_13 (and .def_12 .def_6))) (let ((.def_14 (not .def_13))) (let ((.def_15 (not A4))) (let ((.def_16 (not A10))) (let ((.def_17 (or .def_16 .def_15))) (let ((.def_18 (not .def_17))) (let ((.def_19 (not A19))) (let ((.def_20 (and .def_19 .def_16))) (let ((.def_21 (or .def_20 .def_18))) (let ((.def_22 (not .def_21))) (let ((.def_23 (not A20))) (let ((.def_24 (or A7 .def_23))) (let ((.def_25 (not A21))) (let ((.def_26 (not A14))) (let ((.def_27 (and .def_26 .def_25))) (let ((.def_28 (not .def_27))) (let ((.def_29 (and .def_28 .def_24))) (let ((.def_30 (or .def_29 .def_22))) (let ((.def_31 (not .def_30))) (let ((.def_32 (and .def_31 .def_14))) (let ((.def_33 (not .def_32))) (let ((.def_34 (not A23))) (let ((.def_35 (= .def_34 A21))) (let ((.def_36 (not .def_35))) (let ((.def_37 (not A0))) (let ((.def_38 (or .def_19 .def_37))) (let ((.def_39 (or .def_38 .def_36))) (let ((.def_40 (not A11))) (let ((.def_41 (or .def_40 A6))) (let ((.def_42 (not .def_41))) (let ((.def_43 (not A6))) (let ((.def_44 (and .def_43 A13))) (let ((.def_45 (and .def_44 .def_42))) (let ((.def_46 (not .def_45))) (let ((.def_47 (or .def_46 .def_39))) (let ((.def_48 (or A4 A22))) (let ((.def_49 (or A21 A7))) (let ((.def_50 (not .def_49))) (let ((.def_51 (and .def_50 .def_48))) (let ((.def_52 (not .def_51))) (let ((.def_53 (and A15 A8))) (let ((.def_54 (= A16 A6))) (let ((.def_55 (and .def_54 .def_53))) (let ((.def_56 (or .def_55 .def_52))) (let ((.def_57 (or .def_56 .def_47))) (let ((.def_58 (not .def_57))) (let ((.def_59 (and .def_58 .def_33))) (let ((.def_60 (or A8 A4))) (let ((.def_61 (or A19 A17))) (let ((.def_62 (not .def_61))) (let ((.def_63 (or .def_62 .def_60))) (let ((.def_64 (not .def_63))) (let ((.def_65 (not A3))) (let ((.def_66 (and A5 .def_65))) (let ((.def_67 (not .def_66))) (let ((.def_68 (and .def_26 A21))) (let ((.def_69 (not .def_68))) (let ((.def_70 (= .def_69 .def_67))) (let ((.def_71 (not .def_70))) (let ((.def_72 (= .def_71 .def_64))) (let ((.def_73 (not .def_72))) (let ((.def_74 (not A24))) (let ((.def_75 (and A12 .def_74))) (let ((.def_76 (not .def_75))) (let ((.def_77 (= A1 A14))) (let ((.def_78 (and .def_77 .def_76))) (let ((.def_79 (or A19 .def_26))) (let ((.def_80 (or A10 A10))) (let ((.def_81 (= .def_80 .def_79))) (let ((.def_82 (or .def_81 .def_78))) (let ((.def_83 (not .def_82))) (let ((.def_84 (and .def_83 .def_73))) (let ((.def_85 (and .def_25 A2))) (let ((.def_86 (not .def_85))) (let ((.def_87 (not A8))) (let ((.def_88 (and .def_87 .def_87))) (let ((.def_89 (not .def_88))) (let ((.def_90 (and .def_89 .def_86))) (let ((.def_91 (not .def_90))) (let ((.def_92 (not A17))) (let ((.def_93 (= A15 .def_92))) (let ((.def_94 (not .def_93))) (let ((.def_95 (or A20 .def_74))) (let ((.def_96 (= .def_95 .def_94))) (let ((.def_97 (not .def_96))) (let ((.def_98 (and .def_97 .def_91))) (let ((.def_99 (or A2 .def_3))) (let ((.def_100 (not .def_99))) (let ((.def_101 (or A9 A19))) (let ((.def_102 (or .def_101 .def_100))) (let ((.def_103 (not .def_102))) (let ((.def_104 (= A2 A1))) (let ((.def_105 (not A12))) (let ((.def_106 (and .def_37 .def_105))) (let ((.def_107 (or .def_106 .def_104))) (let ((.def_108 (= .def_107 .def_103))) (let ((.def_109 (not .def_108))) (let ((.def_110 (or .def_109 .def_98))) (let ((.def_111 (not .def_110))) (let ((.def_112 (or .def_111 .def_84))) (let ((.def_113 (and .def_112 .def_59))) (let ((.def_114 (and A13 A13))) (let ((.def_115 (not .def_114))) (let ((.def_116 (or A20 A1))) (let ((.def_117 (or .def_116 .def_115))) (let ((.def_118 (or .def_34 .def_23))) (let ((.def_119 (or .def_23 .def_8))) (let ((.def_120 (not .def_119))) (let ((.def_121 (or .def_120 .def_118))) (let ((.def_122 (= .def_121 .def_117))) (let ((.def_123 (and .def_105 .def_92))) (let ((.def_124 (not .def_123))) (let ((.def_125 (not A2))) (let ((.def_126 (or .def_74 .def_125))) (let ((.def_127 (and .def_126 .def_124))) (let ((.def_128 (not .def_127))) (let ((.def_129 (not A22))) (let ((.def_130 (and A15 .def_129))) (let ((.def_131 (not .def_130))) (let ((.def_132 (= A23 .def_8))) (let ((.def_133 (= .def_132 .def_131))) (let ((.def_134 (and .def_133 .def_128))) (let ((.def_135 (not .def_134))) (let ((.def_136 (or .def_135 .def_122))) (let ((.def_137 (and A23 A21))) (let ((.def_138 (not .def_137))) (let ((.def_139 (= A7 .def_23))) (let ((.def_140 (or .def_139 .def_138))) (let ((.def_141 (not .def_140))) (let ((.def_142 (= A16 .def_87))) (let ((.def_143 (and .def_16 .def_25))) (let ((.def_144 (or .def_143 .def_142))) (let ((.def_145 (not .def_144))) (let ((.def_146 (or .def_145 .def_141))) (let ((.def_147 (not .def_146))) (let ((.def_148 (and A15 .def_26))) (let ((.def_149 (not .def_148))) (let ((.def_150 (= .def_43 A22))) (let ((.def_151 (not .def_150))) (let ((.def_152 (and .def_151 .def_149))) (let ((.def_153 (or .def_16 A20))) (let ((.def_154 (and A10 A13))) (let ((.def_155 (not .def_154))) (let ((.def_156 (and .def_155 .def_153))) (let ((.def_157 (not .def_156))) (let ((.def_158 (and .def_157 .def_152))) (let ((.def_159 (and .def_158 .def_147))) (let ((.def_160 (and .def_159 .def_136))) (let ((.def_161 (and .def_3 .def_2))) (let ((.def_162 (and A5 .def_87))) (let ((.def_163 (= .def_162 .def_161))) (let ((.def_164 (not .def_163))) (let ((.def_165 (and .def_43 A20))) (let ((.def_166 (= A5 A16))) (let ((.def_167 (or .def_166 .def_165))) (let ((.def_168 (or .def_167 .def_164))) (let ((.def_169 (not .def_168))) (let ((.def_170 (or A3 A10))) (let ((.def_171 (not .def_170))) (let ((.def_172 (or A12 .def_19))) (let ((.def_173 (and .def_172 .def_171))) (let ((.def_174 (or A10 .def_23))) (let ((.def_175 (not .def_174))) (let ((.def_176 (and A3 .def_8))) (let ((.def_177 (not .def_176))) (let ((.def_178 (= .def_177 .def_175))) (let ((.def_179 (or .def_178 .def_173))) (let ((.def_180 (not .def_179))) (let ((.def_181 (and .def_180 .def_169))) (let ((.def_182 (not .def_181))) (let ((.def_183 (and .def_37 .def_16))) (let ((.def_184 (not .def_183))) (let ((.def_185 (not A5))) (let ((.def_186 (and A10 .def_185))) (let ((.def_187 (or .def_186 .def_184))) (let ((.def_188 (= A10 .def_105))) (let ((.def_189 (not .def_188))) (let ((.def_190 (or .def_105 A4))) (let ((.def_191 (= .def_190 .def_189))) (let ((.def_192 (not .def_191))) (let ((.def_193 (or .def_192 .def_187))) (let ((.def_194 (and A9 A5))) (let ((.def_195 (not .def_194))) (let ((.def_196 (and .def_16 A3))) (let ((.def_197 (not .def_196))) (let ((.def_198 (or .def_197 .def_195))) (let ((.def_199 (not .def_198))) (let ((.def_200 (and A4 .def_105))) (let ((.def_201 (not .def_200))) (let ((.def_202 (and .def_3 .def_185))) (let ((.def_203 (not .def_202))) (let ((.def_204 (or .def_203 .def_201))) (let ((.def_205 (not .def_204))) (let ((.def_206 (or .def_205 .def_199))) (let ((.def_207 (not .def_206))) (let ((.def_208 (and .def_207 .def_193))) (let ((.def_209 (not .def_208))) (let ((.def_210 (and .def_209 .def_182))) (let ((.def_211 (not .def_210))) (let ((.def_212 (and .def_211 .def_160))) (let ((.def_213 (not .def_212))) (let ((.def_214 (or .def_213 .def_113))) .def_214))))))))))))))))))))))))))))))))))))))))))))))))))))))))))))))))))))))))))))))))))))))))))))))))))))))))))))))))))))))))))))))))))))))))))))))))))))))))))))))))))))))))))))))))))))))))))))))))))))))))))))))))))))))))
(check-sat)
